
Gurobi 9.0.1 (linux64) logging started Thu Apr 30 05:57:51 2020

Gurobi Optimizer version 9.0.1 build v9.0.1rc0 (linux64)
Optimize a model with 896 rows, 990 columns and 6984 nonzeros
Model fingerprint: 0xfb328afd
Variable types: 0 continuous, 990 integer (980 binary)
Coefficient statistics:
  Matrix range     [1e+00, 5e+00]
  Objective range  [1e+00, 1e+02]
  Bounds range     [1e+00, 1e+00]
  RHS range        [1e+00, 1e+00]

User MIP start produced solution with objective 568 (0.00s)
Loaded user MIP start with objective 568

Presolve removed 260 rows and 384 columns
Presolve time: 0.06s
Presolved: 636 rows, 606 columns, 4806 nonzeros
Variable types: 0 continuous, 606 integer (598 binary)

Root relaxation: objective 4.062746e+02, 461 iterations, 0.02 seconds

    Nodes    |    Current Node    |     Objective Bounds      |     Work
 Expl Unexpl |  Obj  Depth IntInf | Incumbent    BestBd   Gap | It/Node Time

     0     0  406.27463    0  222  568.00000  406.27463  28.5%     -    0s
     0     0  417.39810    0  247  568.00000  417.39810  26.5%     -    0s
     0     0  417.58026    0  245  568.00000  417.58026  26.5%     -    0s
     0     0  417.66715    0  246  568.00000  417.66715  26.5%     -    0s
     0     0  422.01896    0  248  568.00000  422.01896  25.7%     -    0s
     0     0  422.68135    0  242  568.00000  422.68135  25.6%     -    0s
     0     0  422.70962    0  246  568.00000  422.70962  25.6%     -    0s
     0     0  422.70962    0  246  568.00000  422.70962  25.6%     -    0s
     0     0  427.28552    0  262  568.00000  427.28552  24.8%     -    0s
H    0     0                     482.0000000  427.28552  11.4%     -    0s
H    0     0                     473.0000000  427.28552  9.66%     -    0s
     0     0  427.92075    0  259  473.00000  427.92075  9.53%     -    0s
     0     0  428.35619    0  268  473.00000  428.35619  9.44%     -    0s
     0     0  428.54827    0  274  473.00000  428.54827  9.40%     -    0s
     0     0  428.69710    0  272  473.00000  428.69710  9.37%     -    0s
     0     0  428.80911    0  265  473.00000  428.80911  9.34%     -    0s
     0     0  428.80920    0  266  473.00000  428.80920  9.34%     -    0s
     0     0  431.83139    0  275  473.00000  431.83139  8.70%     -    0s
     0     0  432.83287    0  274  473.00000  432.83287  8.49%     -    1s
     0     0  432.93274    0  274  473.00000  432.93274  8.47%     -    1s
     0     0  432.95477    0  281  473.00000  432.95477  8.47%     -    1s
     0     0  432.98646    0  277  473.00000  432.98646  8.46%     -    1s
     0     0  432.98862    0  282  473.00000  432.98862  8.46%     -    1s
     0     0  434.06858    0  287  473.00000  434.06858  8.23%     -    1s
     0     0  434.12445    0  289  473.00000  434.12445  8.22%     -    1s
     0     0  434.12695    0  291  473.00000  434.12695  8.22%     -    1s
     0     0  435.10547    0  289  473.00000  435.10547  8.01%     -    1s
     0     0  435.20042    0  287  473.00000  435.20042  7.99%     -    1s
     0     0  435.20469    0  288  473.00000  435.20469  7.99%     -    1s
     0     0  435.58922    0  272  473.00000  435.58922  7.91%     -    1s
H    0     0                     472.0000000  435.58922  7.71%     -    1s
     0     0  435.62226    0  272  472.00000  435.62226  7.71%     -    1s
     0     0  435.62385    0  272  472.00000  435.62385  7.71%     -    1s
     0     0  435.70323    0  277  472.00000  435.70323  7.69%     -    1s
     0     0  435.70323    0  277  472.00000  435.70323  7.69%     -    1s
     0     0  435.93548    0  211  472.00000  435.93548  7.64%     -    1s
     0     0  435.93548    0  268  472.00000  435.93548  7.64%     -    1s
     0     0  435.93548    0  260  472.00000  435.93548  7.64%     -    1s
     0     0  435.93548    0  264  472.00000  435.93548  7.64%     -    1s
     0     0  435.93548    0  263  472.00000  435.93548  7.64%     -    1s
     0     0  435.93548    0  275  472.00000  435.93548  7.64%     -    1s
     0     0  435.93548    0  274  472.00000  435.93548  7.64%     -    1s
     0     0  436.93921    0  261  472.00000  436.93921  7.43%     -    2s
     0     0  437.13319    0  261  472.00000  437.13319  7.39%     -    2s
     0     0  437.38083    0  256  472.00000  437.38083  7.33%     -    2s
     0     0  437.42104    0  257  472.00000  437.42104  7.33%     -    2s
     0     0  437.46425    0  259  472.00000  437.46425  7.32%     -    2s
     0     0  437.47010    0  258  472.00000  437.47010  7.32%     -    2s
     0     0  437.93936    0  263  472.00000  437.93936  7.22%     -    2s
     0     0  438.13410    0  266  472.00000  438.13410  7.17%     -    2s
     0     0  438.14811    0  262  472.00000  438.14811  7.17%     -    2s
     0     0  438.23371    0  267  472.00000  438.23371  7.15%     -    2s
     0     0  438.23371    0  267  472.00000  438.23371  7.15%     -    2s
     0     2  438.27901    0  267  472.00000  438.27901  7.14%     -    2s
H   27    10                     467.0000000  444.03797  4.92%   162    3s

Cutting planes:
  Gomory: 1
  Clique: 1
  MIR: 17
  Zero half: 26
  RLT: 105

Explored 302 nodes (20126 simplex iterations) in 3.73 seconds
Thread count was 1 (of 40 available processors)

Solution count 5: 467 472 473 ... 568

Optimal solution found (tolerance 1.00e-04)
Best objective 4.670000000000e+02, best bound 4.670000000000e+02, gap 0.0000%

User-callback calls 1640, time in user-callback 0.00 sec
